p cnf 87 320
c p weight 8 -1 0
c p weight -8 1 0
c p weight 10 6.12323399573676603586882014729198302312846062338790031898128063403419218957424163818359375E-17 0
c p weight -10 1 0
c p weight 11 1 0
c p weight -11 1 0
c p weight 12 -1 0
c p weight -12 1 0
c p weight 14 -1 0
c p weight -14 1 0
c p weight 16 -1 0
c p weight -16 1 0
c p weight 18 6.12323399573676603586882014729198302312846062338790031898128063403419218957424163818359375E-17 0
c p weight -18 1 0
c p weight 19 1 0
c p weight -19 1 0
c p weight 20 -1 0
c p weight -20 1 0
c p weight 22 -1 0
c p weight -22 1 0
c p weight 24 -1 0
c p weight -24 1 0
c p weight 26 6.12323399573676603586882014729198302312846062338790031898128063403419218957424163818359375E-17 0
c p weight -26 1 0
c p weight 27 1 0
c p weight -27 1 0
c p weight 28 -1 0
c p weight -28 1 0
c p weight 30 -1 0
c p weight -30 1 0
c p weight 33 -1 0
c p weight -33 1 0
c p weight 35 -1 0
c p weight -35 1 0
c p weight 37 6.12323399573676603586882014729198302312846062338790031898128063403419218957424163818359375E-17 0
c p weight -37 1 0
c p weight 38 1 0
c p weight -38 1 0
c p weight 39 -1 0
c p weight -39 1 0
c p weight 41 -1 0
c p weight -41 1 0
c p weight 43 -1 0
c p weight -43 1 0
c p weight 45 6.12323399573676603586882014729198302312846062338790031898128063403419218957424163818359375E-17 0
c p weight -45 1 0
c p weight 46 1 0
c p weight -46 1 0
c p weight 47 -1 0
c p weight -47 1 0
c p weight 49 -1 0
c p weight -49 1 0
c p weight 51 -1 0
c p weight -51 1 0
c p weight 53 6.12323399573676603586882014729198302312846062338790031898128063403419218957424163818359375E-17 0
c p weight -53 1 0
c p weight 54 1 0
c p weight -54 1 0
c p weight 55 -1 0
c p weight -55 1 0
c p weight 57 -1 0
c p weight -57 1 0
c p weight 60 -1 0
c p weight -60 1 0
c p weight 62 -1 0
c p weight -62 1 0
c p weight 64 6.12323399573676603586882014729198302312846062338790031898128063403419218957424163818359375E-17 0
c p weight -64 1 0
c p weight 65 1 0
c p weight -65 1 0
c p weight 66 -1 0
c p weight -66 1 0
c p weight 68 -1 0
c p weight -68 1 0
c p weight 70 -1 0
c p weight -70 1 0
c p weight 72 6.12323399573676603586882014729198302312846062338790031898128063403419218957424163818359375E-17 0
c p weight -72 1 0
c p weight 73 1 0
c p weight -73 1 0
c p weight 74 -1 0
c p weight -74 1 0
c p weight 76 -1 0
c p weight -76 1 0
c p weight 79 -1 0
c p weight -79 1 0
c p weight 81 -1 0
c p weight -81 1 0
c p weight 83 6.12323399573676603586882014729198302312846062338790031898128063403419218957424163818359375E-17 0
c p weight -83 1 0
c p weight 84 1 0
c p weight -84 1 0
c p weight 85 -1 0
c p weight -85 1 0
c p weight 87 -1 0
c p weight -87 1 0
-5 0
-3 0
-1 0
7 1 -2 0
7 -1 2 0
-7 1 2 0
-7 -1 -2 0
-8 1 0
-8 2 0
8 -1 -2 0
9 -1 7 0
-9 1 7 0
-10 7 0
9 -10 -1 0
-9 -10 1 0
9 10 1 -7 0
-9 10 -1 -7 0
-11 7 0
9 -11 1 0
-9 -11 -1 0
9 11 -1 -7 0
-9 11 1 -7 0
-12 9 0
-12 7 0
-12 -1 0
12 -9 1 -7 0
13 9 -7 0
13 -9 7 0
-13 9 7 0
-13 -9 -7 0
-14 9 0
-14 7 0
14 -9 -7 0
15 3 -4 0
15 -3 4 0
-15 3 4 0
-15 -3 -4 0
-16 3 0
-16 4 0
16 -3 -4 0
17 -3 15 0
-17 3 15 0
-18 15 0
17 -18 -3 0
-17 -18 3 0
17 18 3 -15 0
-17 18 -3 -15 0
-19 15 0
17 -19 3 0
-17 -19 -3 0
17 19 -3 -15 0
-17 19 3 -15 0
-20 17 0
-20 15 0
-20 -3 0
20 -17 3 -15 0
21 17 -15 0
21 -17 15 0
-21 17 15 0
-21 -17 -15 0
-22 17 0
-22 15 0
22 -17 -15 0
23 17 -21 0
23 -17 21 0
-23 17 21 0
-23 -17 -21 0
-24 17 0
-24 21 0
24 -17 -21 0
25 -17 23 0
-25 17 23 0
-26 23 0
25 -26 -17 0
-25 -26 17 0
25 26 17 -23 0
-25 26 -17 -23 0
-27 23 0
25 -27 17 0
-25 -27 -17 0
25 27 -17 -23 0
-25 27 17 -23 0
-28 25 0
-28 23 0
-28 -17 0
28 -25 17 -23 0
29 25 -23 0
29 -25 23 0
-29 25 23 0
-29 -25 -23 0
-30 25 0
-30 23 0
30 -25 -23 0
31 9 -25 0
31 -9 25 0
-31 9 25 0
-31 -9 -25 0
32 13 -29 0
32 -13 29 0
-32 13 29 0
-32 -13 -29 0
-33 9 0
-33 29 0
-33 25 -13 0
-33 -25 13 0
33 -9 25 13 -29 0
33 -9 -25 -13 -29 0
34 31 -29 0
34 -31 29 0
-34 31 29 0
-34 -31 -29 0
-35 31 0
-35 29 0
35 -31 -29 0
36 -31 34 0
-36 31 34 0
-37 34 0
36 -37 -31 0
-36 -37 31 0
36 37 31 -34 0
-36 37 -31 -34 0
-38 34 0
36 -38 31 0
-36 -38 -31 0
36 38 -31 -34 0
-36 38 31 -34 0
-39 36 0
-39 34 0
-39 -31 0
39 -36 31 -34 0
40 36 -34 0
40 -36 34 0
-40 36 34 0
-40 -36 -34 0
-41 36 0
-41 34 0
41 -36 -34 0
42 5 -6 0
42 -5 6 0
-42 5 6 0
-42 -5 -6 0
-43 5 0
-43 6 0
43 -5 -6 0
44 -5 42 0
-44 5 42 0
-45 42 0
44 -45 -5 0
-44 -45 5 0
44 45 5 -42 0
-44 45 -5 -42 0
-46 42 0
44 -46 5 0
-44 -46 -5 0
44 46 -5 -42 0
-44 46 5 -42 0
-47 44 0
-47 42 0
-47 -5 0
47 -44 5 -42 0
48 44 -42 0
48 -44 42 0
-48 44 42 0
-48 -44 -42 0
-49 44 0
-49 42 0
49 -44 -42 0
50 44 -48 0
50 -44 48 0
-50 44 48 0
-50 -44 -48 0
-51 44 0
-51 48 0
51 -44 -48 0
52 -44 50 0
-52 44 50 0
-53 50 0
52 -53 -44 0
-52 -53 44 0
52 53 44 -50 0
-52 53 -44 -50 0
-54 50 0
52 -54 44 0
-52 -54 -44 0
52 54 -44 -50 0
-52 54 44 -50 0
-55 52 0
-55 50 0
-55 -44 0
55 -52 44 -50 0
56 52 -50 0
56 -52 50 0
-56 52 50 0
-56 -52 -50 0
-57 52 0
-57 50 0
57 -52 -50 0
58 9 -52 0
58 -9 52 0
-58 9 52 0
-58 -9 -52 0
59 32 -56 0
59 -32 56 0
-59 32 56 0
-59 -32 -56 0
-60 9 0
-60 56 0
-60 52 -32 0
-60 -52 32 0
60 -9 52 32 -56 0
60 -9 -52 -32 -56 0
61 58 -56 0
61 -58 56 0
-61 58 56 0
-61 -58 -56 0
-62 58 0
-62 56 0
62 -58 -56 0
63 -58 61 0
-63 58 61 0
-64 61 0
63 -64 -58 0
-63 -64 58 0
63 64 58 -61 0
-63 64 -58 -61 0
-65 61 0
63 -65 58 0
-63 -65 -58 0
63 65 -58 -61 0
-63 65 58 -61 0
-66 63 0
-66 61 0
-66 -58 0
66 -63 58 -61 0
67 63 -61 0
67 -63 61 0
-67 63 61 0
-67 -63 -61 0
-68 63 0
-68 61 0
68 -63 -61 0
69 63 -67 0
69 -63 67 0
-69 63 67 0
-69 -63 -67 0
-70 63 0
-70 67 0
70 -63 -67 0
71 -63 69 0
-71 63 69 0
-72 69 0
71 -72 -63 0
-71 -72 63 0
71 72 63 -69 0
-71 72 -63 -69 0
-73 69 0
71 -73 63 0
-71 -73 -63 0
71 73 -63 -69 0
-71 73 63 -69 0
-74 71 0
-74 69 0
-74 -63 0
74 -71 63 -69 0
75 71 -69 0
75 -71 69 0
-75 71 69 0
-75 -71 -69 0
-76 71 0
-76 69 0
76 -71 -69 0
77 36 -71 0
77 -36 71 0
-77 36 71 0
-77 -36 -71 0
78 40 -75 0
78 -40 75 0
-78 40 75 0
-78 -40 -75 0
-79 36 0
-79 75 0
-79 71 -40 0
-79 -71 40 0
79 -36 71 40 -75 0
79 -36 -71 -40 -75 0
80 77 -75 0
80 -77 75 0
-80 77 75 0
-80 -77 -75 0
-81 77 0
-81 75 0
81 -77 -75 0
82 -77 80 0
-82 77 80 0
-83 80 0
82 -83 -77 0
-82 -83 77 0
82 83 77 -80 0
-82 83 -77 -80 0
-84 80 0
82 -84 77 0
-82 -84 -77 0
82 84 -77 -80 0
-82 84 77 -80 0
-85 82 0
-85 80 0
-85 -77 0
85 -82 77 -80 0
86 82 -80 0
86 -82 80 0
-86 82 80 0
-86 -82 -80 0
-87 82 0
-87 80 0
87 -82 -80 0
-9 0
-36 0
-78 0
-82 0
-86 0
